c clasp version 2.1.1
c Reading from pb_400_03.cnf
c Solving...
s UNSATISFIABLE

c Models        : 0     
c Time          : 35.184s (Solving: 32.50s 1st Model: 0.00s Unsat: 32.50s)
c CPU Time      : 35.120s
c Choices       : 274414
c Conflicts     : 61356
c Restarts      : 87     (Average: 705.23 Last: 2528)

c Variables     : 633389 (Eliminated: 201078 Frozen:    0)
c Constraints   : 834463 (Binary: 62.8% Ternary: 36.5% Other:  0.7%)
c Lemmas        : 61355  (Binary:  0.1% Ternary:  0.3% Other: 99.6%)
c   Conflict    : 61355  (Average Length: 31.4) 
c   Loop        : 0      (Average Length: 0.0) 
c   Other       : 0      (Average Length: 0.0)
c   Deleted     : 37268 
